1 2
2 2
3 2
4 1
5 1
6 2
7 2
8 2
9 2
10 1
11 1
12 1
13 2
14 2
15 2
16 1
17 1
18 1
19 1
20 1
21 1
22 1
23 2
24 1
25 1
26 2
27 1
28 1
29 1
30 1
31 2
32 2
33 1
34 1
35 2
36 1
37 1
38 2
39 2
40 1
41 2
42 1
43 2
44 2
45 2
46 1
47 2
48 2
49 2
50 2
